
<<< setup


<<< generate

Version identifier: 12.10.0.0 | 2019-11-26 | 843d4de2ae
CPXPARAM_TimeLimit                               1200
Tried aggregator 3 times.
MIP Presolve eliminated 5184983 rows and 2949736 columns.
MIP Presolve modified 437170 coefficients.
Aggregator did 806 substitutions.
Reduced MIP has 57261 rows, 61008 columns, and 370541 nonzeros.
Reduced MIP has 60958 binaries, 0 generals, 0 SOSs, and 0 indicators.
Presolve time = 7.19 sec. (4544.41 ticks)
Found incumbent of value 3404.000000 after 10.94 sec. (5794.51 ticks)
Probing fixed 4921 vars, tightened 0 bounds.
Probing time = 24.09 sec. (5469.43 ticks)
Tried aggregator 2 times.
Detecting symmetries...
MIP Presolve eliminated 3650 rows and 4924 columns.
Aggregator did 13 substitutions.
Reduced MIP has 53598 rows, 56071 columns, and 342572 nonzeros.
Reduced MIP has 56021 binaries, 0 generals, 0 SOSs, and 0 indicators.
Presolve time = 0.49 sec. (299.40 ticks)
Probing fixed 4 vars, tightened 0 bounds.
Probing time = 0.72 sec. (160.72 ticks)
Clique table members: 206603.
MIP emphasis: balance optimality and feasibility.
MIP search method: dynamic search.
Parallel mode: deterministic, using up to 4 threads.
Root relaxation solution time = 1.41 sec. (979.21 ticks)

        Nodes                                         Cuts/
   Node  Left     Objective  IInf  Best Integer    Best Bound    ItCnt     Gap

*     0+    0                         3404.0000   105364.0000              --- 
*     0+    0                         3715.0000   105364.0000              --- 
      0     0    56785.0000   344     3715.0000    56785.0000     4506     --- 
*     0+    0                        38935.0000    56785.0000            45.85%
      0     0    56785.0000   344    38935.0000      Cuts: 71     4613   45.85%
      0     0    56785.0000   344    38935.0000    Cuts: 4281     6903   45.85%
      0     0    56785.0000   344    38935.0000      Cuts: 86     7037   45.85%
*     0+    0                        43753.0000    56785.0000            29.79%
*     0+    0                        45744.0000    56785.0000            24.14%
      0     0    56785.0000   344    45744.0000    Cuts: 4517     7911   24.14%
Detecting symmetries...
      0     2    56785.0000    78    45744.0000    56785.0000     7911   24.14%
Elapsed time = 88.22 sec. (46199.23 ticks, tree = 0.02 MB, solutions = 5)
      1     3    56785.0000   103    45744.0000    56785.0000     9157   24.14%
      2     4    56785.0000   123    45744.0000    56785.0000     9704   24.14%
      4     5    56785.0000   151    45744.0000    56785.0000    10354   24.14%
      6     7    56785.0000   163    45744.0000    56785.0000    11508   24.14%
      9    10    56785.0000   194    45744.0000    56785.0000    13028   24.14%
     11     9    56785.0000   229    45744.0000    56785.0000    13596   24.14%
     14    14    56785.0000   167    45744.0000    56785.0000    14898   24.14%
     17    13    56785.0000   217    45744.0000    56785.0000    14630   24.14%
     18    14    56785.0000   168    45744.0000    56785.0000    15429   24.14%
     28    23    56785.0000   151    45744.0000    56785.0000    21152   24.14%
Elapsed time = 95.70 sec. (50271.06 ticks, tree = 0.37 MB, solutions = 5)
     33    26    infeasible          45744.0000    56785.0000    24665   24.14%
     39    28    56785.0000   220    45744.0000    56785.0000    27823   24.14%
     46    35    56785.0000   228    45744.0000    56785.0000    35649   24.14%
     55    46    56785.0000   114    45744.0000    56785.0000    44456   24.14%
     67    51    56785.0000   127    45744.0000    56785.0000    48303   24.14%
     72    56    infeasible          45744.0000    56785.0000    59602   24.14%
     92    69    56785.0000   125    45744.0000    56785.0000    62897   24.14%
    102    69    56785.0000   133    45744.0000    56785.0000    63642   24.14%
    114    54    56785.0000   184    45744.0000    56785.0000    61776   24.14%
    125    77    56785.0000   228    45744.0000    56785.0000    85320   24.14%
Elapsed time = 121.14 sec. (61742.57 ticks, tree = 1.18 MB, solutions = 5)
    142    83    56785.0000    88    45744.0000    56785.0000   104235   24.14%
    148    87    56785.0000   115    45744.0000    56785.0000   116383   24.14%
    150    86    56785.0000   188    45744.0000    56785.0000   112127   24.14%
    152    87    56785.0000    67    45744.0000    56785.0000   116756   24.14%
    154    88    56785.0000    67    45744.0000    56785.0000   119225   24.14%
    156    88    56785.0000    61    45744.0000    56785.0000   119421   24.14%
    158    88    56785.0000    55    45744.0000    56785.0000   119525   24.14%
    160    88    56785.0000    61    45744.0000    56785.0000   119595   24.14%
    170    97    56785.0000   154    45744.0000    56785.0000   121673   24.14%
    197    95    56785.0000   184    45744.0000    56785.0000   123445   24.14%
Elapsed time = 174.41 sec. (74053.03 ticks, tree = 3.09 MB, solutions = 5)
    242    98    56785.0000    53    45744.0000    56785.0000   121333   24.14%
    282   100    56785.0000    25    45744.0000    56785.0000   121786   24.14%
    344   128    56785.0000   185    45744.0000    56785.0000   134913   24.14%
    376   142    56785.0000   134    45744.0000    56785.0000   142432   24.14%
    418   168    56785.0000    92    45744.0000    56785.0000   147234   24.14%
    450   148    56785.0000   158    45744.0000    56785.0000   139478   24.14%
    484   175    infeasible          45744.0000    56785.0000   149490   24.14%
    556   219    56785.0000   100    45744.0000    56785.0000   151272   24.14%
    618   263    56785.0000   109    45744.0000    56785.0000   151681   24.14%
*   654+  274                        46604.0000    56785.0000            21.85%
    670   316    56785.0000   106    46604.0000    56785.0000   172643   21.85%
Elapsed time = 198.56 sec. (83754.25 ticks, tree = 67.70 MB, solutions = 6)
    728   362    56785.0000   103    46604.0000    56785.0000   173155   21.85%
    764   318    infeasible          46604.0000    56785.0000   188450   21.85%
    822   437    56785.0000    95    46604.0000    56785.0000   189544   21.85%
    911   477    56785.0000    88    46604.0000    56785.0000   190131   21.85%
   1021   432    56785.0000   150    46604.0000    56785.0000   199807   21.85%
*  1024+  515                        51935.0000    56785.0000             9.34%
   1111   424    56785.0000   125    51935.0000    56785.0000   201544    9.34%
   1181   602    56785.0000    71    51935.0000    56785.0000   206426    9.34%
   1274   543    56785.0000   131    51935.0000    56785.0000   216929    9.34%
   1358   665    56785.0000    91    51935.0000    56785.0000   218178    9.34%
   1468   683    56785.0000    85    51935.0000    56785.0000   229027    9.34%
Elapsed time = 216.92 sec. (93381.90 ticks, tree = 211.22 MB, solutions = 7)
   1577   681    56785.0000    50    51935.0000    56785.0000   232013    9.34%
   1698   679    56785.0000   117    51935.0000    56785.0000   232653    9.34%
   1815   681    56785.0000   137    51935.0000    56785.0000   233868    9.34%
   1978   694    56785.0000    75    51935.0000    56785.0000   243049    9.34%
   2134   700    infeasible          51935.0000    56785.0000   245626    9.34%
   2273   708    56785.0000   109    51935.0000    56785.0000   248170    9.34%
   2440   705    56785.0000   134    51935.0000    56785.0000   249189    9.34%
   2596   710    56785.0000   112    51935.0000    56785.0000   253694    9.34%
   2752   710    56785.0000    87    51935.0000    56785.0000   254348    9.34%
   2922   713    56785.0000    36    51935.0000    56785.0000   256786    9.34%
Elapsed time = 234.83 sec. (103005.27 ticks, tree = 218.24 MB, solutions = 7)
   3078   708    56785.0000    58    51935.0000    56785.0000   259193    9.34%
   3205   714    56785.0000    82    51935.0000    56785.0000   262751    9.34%
*  3289+  712                        52061.0000    56785.0000             9.07%
   3298   714    infeasible          52061.0000    56785.0000   266507    9.07%
   3425   715    56785.0000    94    52061.0000    56785.0000   268350    9.07%
   3541   717    56785.0000    73    52061.0000    56785.0000   275328    9.07%
   3671   729    56785.0000    48    52061.0000    56785.0000   275476    9.07%
   3824   728    infeasible          52061.0000    56785.0000   281391    9.07%
*  3950+  688                        56785.0000    56785.0000             0.00%
   3964   717    56785.0000   141    56785.0000    56785.0000   278997    0.00%

Implied bound cuts applied:  314
Flow cuts applied:  36
Mixed integer rounding cuts applied:  243

Root node processing (before b&c):
  Real time             =   87.84 sec. (46081.99 ticks)
Parallel b&c, 4 threads:
  Real time             =  163.08 sec. (65826.60 ticks)
  Sync time (average)   =   22.75 sec.
  Wait time (average)   =    0.00 sec.
                          ------------
Total (root+branch&cut) =  250.92 sec. (111908.59 ticks)

<<< solve


OBJECTIVE: 56785

<<< post process


<<< done

